5 5
6 3 5 12 4 5 1 9 3 5 10 2 6 1 17 4 1 17 2 4 5 11 3 11 2 4 15 5 4 5 2 3 4 19 3 2 5 4 1 18 1 4 5
4 2 5 20 3 3 3 3 4 4 12 1 11 5 5 16 3 17 1 7 4 6 2 11 3 1 8 2 12 4 13
6 3 4 19 3 7 5 4 4 3 17 5 8 4 6 1 19 2 1 2 2 9 4 1 20 5 5 4 17 3 9 1 2 10 3 4 17 3 16 5 11
5 4 2 19 3 18 1 2 4 16 5 4 15 3 3 1 8 5 9 2 18 4 2 20 5 17 4 11 3 8 4 4 7 2 11 3 10 1 16 5 4 20 2 2 3 13 5 11 1 8
6 3 4 11 5 2 1 7 4 5 5 4 12 3 19 2 6 2 1 7 5 3 5 3 3 4 8 5 6 1 9 2 8 4 1 3 2 3 5 14 4 16 3 4 7 5 10 3 5